100 10
112 244
597 216
497 827
568 340
550 716
897 473
333 441
374 417
545 947
724 772
478 519
246 423
720 347
511 887
409 754
769 402
386 79
314 851
694 367
548 769
178 814
408 748
181 453
542 665
231 849
570 947
28 675
735 573
692 502
462 574
396 254
552 207
272 431
793 363
809 315
307 287
32 84
396 918
575 813
462 494
296 708
420 280
434 464
613 691
499 585
247 672
404 797
685 708
239 681
247 381
192 434
220 288
454 561
607 767
211 484
414 602
380 787
139 88
911 189
663 573
401 363
540 617
154 89
728 861
516 291
228 433
279 589
106 756
279 933
319 801
256 612
749 521
464 764
429 567
263 681
356 251
113 305
462 879
395 933
366 642
74 136
289 543
443 850
402 813
610 848
200 657
876 390
311 661
456 368
686 501
613 396
372 381
255 154
457 722
287 412
595 257
530 432
118 239
657 601
804 478
